p cnf 37 106
a 28 0
e 1 2 3 4 5 6 7 8 9 10 11 12 13 14 15 16 17 18 19 20 21 22 23 24 25 26 27 29 30 31 32 33 34 35 36 37 0
-1 2 -3 0
1 -2 -3 0
-1 -2 3 0
1 2 3 0
5 4 0
5 -2 0
-4 2 -5 0
6 -1 0
6 5 0
1 -5 -6 0
-2 -4 -7 0
2 4 -7 0
-2 4 7 0
2 -4 7 0
-9 -7 0
-9 8 0
7 -8 9 0
10 -6 0
10 -9 0
6 9 -10 0
12 11 0
12 -2 0
-11 2 -12 0
-14 13 0
-14 -6 0
-13 6 14 0
-15 5 0
-15 -14 0
-5 14 15 0
16 -1 0
16 -11 0
1 11 -16 0
15 16 -17 0
-15 -16 -17 0
15 -16 17 0
-15 16 17 0
12 -17 -18 0
-12 17 -18 0
12 17 18 0
-12 -17 18 0
20 6 0
20 -15 0
-6 15 -20 0
-21 13 0
-21 -14 0
-13 14 21 0
-22 20 0
-22 -21 0
-20 21 22 0
-23 -19 0
-23 22 0
19 -22 23 0
-24 -13 0
-24 8 0
13 -8 24 0
23 -24 -25 0
-23 24 -25 0
23 24 25 0
-23 -24 25 0
-26 18 0
-26 25 0
-18 -25 26 0
10 -26 -27 0
-10 26 -27 0
10 26 27 0
-10 -26 27 0
-28 3 0
-28 -27 0
-3 27 28 0
29 11 -30 0
-29 -11 -30 0
29 -11 30 0
-29 11 30 0
-31 11 0
-31 30 0
-11 -30 31 0
-32 -5 0
-32 14 0
5 -14 32 0
33 -32 0
33 7 0
32 -7 -33 0
-34 -31 0
-34 33 0
31 -33 34 0
-35 -4 0
-35 16 0
4 -16 35 0
-36 -34 0
-36 35 0
34 -35 36 0
28 36 -37 0
-28 -36 -37 0
28 -36 37 0
-28 36 37 0
-1 33 29 -17 -35 -23 3 0
-32 -29 -10 -21 -36 0
-2 32 -29 -26 0
-18 5 -19 -32 34 0
13 -37 24 -32 0
4 -9 33 18 0
-30 14 28 -37 5 -32 0
6 30 5 0
-23 -25 4 -2 0
-30 37 5 -31 -25 -1 0
37 0
